
Gurobi 7.0.2 (mac64, Python) logging started Tue Jul 11 13:46:41 2017


Gurobi 7.0.2 (mac64, Python) logging started Tue Jul 11 13:47:29 2017


Gurobi 7.0.2 (mac64, Python) logging started Tue Jul 11 13:48:24 2017


Gurobi 7.0.2 (mac64, Python) logging started Tue Jul 11 14:10:54 2017


Gurobi 7.0.2 (mac64, Python) logging started Tue Jul 11 15:50:41 2017


Gurobi 7.0.2 (mac64, Python) logging started Tue Jul 11 15:52:17 2017


Gurobi 7.0.2 (mac64, Python) logging started Tue Jul 11 15:52:45 2017


Gurobi 7.0.2 (mac64, Python) logging started Tue Jul 11 17:34:14 2017


Gurobi 7.0.2 (mac64, Python) logging started Tue Jul 11 18:37:52 2017


Gurobi 7.0.2 (mac64, Python) logging started Tue Jul 11 18:42:56 2017


Gurobi 7.0.2 (mac64, Python) logging started Tue Jul 11 19:00:09 2017


Gurobi 7.0.2 (mac64, Python) logging started Tue Jul 11 19:01:00 2017


Gurobi 7.0.2 (mac64, Python) logging started Tue Jul 11 19:01:35 2017


Gurobi 7.0.2 (mac64, Python) logging started Tue Jul 11 19:01:40 2017


Gurobi 7.0.2 (mac64, Python) logging started Tue Jul 11 19:01:48 2017


Gurobi 7.0.2 (mac64, Python) logging started Tue Jul 11 19:10:03 2017


Gurobi 7.0.2 (mac64, Python) logging started Tue Jul 11 19:52:33 2017


Gurobi 7.0.2 (mac64, Python) logging started Tue Jul 11 19:53:17 2017


Gurobi 7.0.2 (mac64, Python) logging started Tue Jul 11 19:53:42 2017

